presolving:
(round 1, fast)       75 del vars, 75 del conss, 0 add conss, 37650 chg bounds, 0 chg sides, 36 chg coeffs, 0 upgd conss, 0 impls, 18750 clqs
   (0.2s) running MILP presolver
   (0.3s) MILP presolver found nothing
(round 2, exhaustive) 75 del vars, 75 del conss, 0 add conss, 37650 chg bounds, 0 chg sides, 72 chg coeffs, 19081 upgd conss, 0 impls, 18750 clqs
(round 3, fast)       75 del vars, 75 del conss, 0 add conss, 37650 chg bounds, 1 chg sides, 9124 chg coeffs, 19081 upgd conss, 0 impls, 18750 clqs
(round 4, medium)     75 del vars, 9111 del conss, 9000 add conss, 37650 chg bounds, 1 chg sides, 9124 chg coeffs, 19081 upgd conss, 0 impls, 18750 clqs
   (0.7s) probing: 51/18825 (0.3%) - 0 fixings, 0 aggregations, 0 implications, 0 bound changes
   (0.7s) probing aborted: 50/50 successive totally useless probings
   (0.8s) symmetry computation started: requiring (bin +, int -, cont +), (fixed: bin -, int +, cont -)
   (0.8s) no symmetry present
presolving (5 rounds: 5 fast, 3 medium, 2 exhaustive):
 75 deleted vars, 9111 deleted constraints, 9000 added constraints, 37650 tightened bounds, 0 added holes, 1 changed sides, 9124 changed coefficients
 0 implications, 18750 cliques
presolved problem has 18825 variables (18825 bin, 0 int, 0 impl, 0 cont) and 19045 constraints
     40 constraints of type <knapsack>
  18750 constraints of type <setppc>
    255 constraints of type <logicor>
Presolving Time: 0.79

 time | node  | left  |LP iter|LP it/n|mem/heur|mdpt |vars |cons |rows |cuts |sepa|confs|strbr|  dualbound   | primalbound  |  gap   | compl. 
p 1.0s|     1 |     0 |     0 |     - |  clique|   0 |  18k|  19k|  19k|   0 |  0 |   0 |   0 | 2.406157e+04 | 2.462609e+05 | 923.46%| unknown
 13.0s|     1 |     0 | 15586 |     - |   208M |   0 |  18k|  19k|  19k|   0 |  0 |   2 |   0 | 1.593076e+05 | 2.462609e+05 |  54.58%| unknown
r13.0s|     1 |     0 | 15586 |     - |rounding|   0 |  18k|  19k|  19k|   0 |  0 |   2 |   0 | 1.593076e+05 | 1.781636e+05 |  11.84%| unknown
 15.2s|     1 |     0 | 18044 |     - |   213M |   0 |  18k|  19k|  19k|   2 |  1 |   2 |   0 | 1.599432e+05 | 1.781636e+05 |  11.39%| unknown
 15.2s|     1 |     0 | 18044 |     - |   213M |   0 |  18k|  19k|  14k|   2 |  1 |   2 |   0 | 1.599432e+05 | 1.781636e+05 |  11.39%| unknown
 16.1s|     1 |     0 | 18437 |     - |   215M |   0 |  18k|  14k|  14k|   4 |  2 |   2 |   0 | 1.599658e+05 | 1.781636e+05 |  11.38%| unknown
 16.1s|     1 |     0 | 18437 |     - |   215M |   0 |  18k|  14k|  14k|   4 |  2 |   2 |   0 | 1.599658e+05 | 1.781636e+05 |  11.38%| unknown
 16.8s|     1 |     0 | 18445 |     - |   216M |   0 |  18k|  14k|  14k|   5 |  3 |   2 |   0 | 1.599659e+05 | 1.781636e+05 |  11.38%| unknown
 17.6s|     1 |     0 | 18472 |     - |   217M |   0 |  18k|  14k|  14k|   7 |  4 |   2 |   0 | 1.599683e+05 | 1.781636e+05 |  11.37%| unknown
 18.3s|     1 |     0 | 18482 |     - |   223M |   0 |  18k|  14k|  14k|   8 |  5 |   2 |   0 | 1.599685e+05 | 1.781636e+05 |  11.37%| unknown
 19.1s|     1 |     0 | 18521 |     - |   224M |   0 |  18k|  14k|  14k|   9 |  6 |   2 |   0 | 1.599700e+05 | 1.781636e+05 |  11.37%| unknown
o39.4s|     1 |     0 | 40973 |     - |feaspump|   0 |  18k|  12k|  14k|   9 |  8 |   2 |   0 | 1.599700e+05 | 1.612113e+05 |   0.78%| unknown
L40.7s|     1 |     0 | 41775 |     - |    rens|   0 |  18k|  12k|  14k|   9 |  8 |  27 |   0 | 1.599700e+05 | 1.601736e+05 |   0.13%| unknown
(run 1, node 1) restarting after 6801 global fixings of integer variables

(restart) converted 5 cuts from the global cut pool into linear constraints

presolving:
(round 1, fast)       10051 del vars, 3272 del conss, 0 add conss, 0 chg bounds, 1 chg sides, 11698 chg coeffs, 0 upgd conss, 0 impls, 8739 clqs
   (41.1s) running MILP presolver
   (41.1s) MILP presolver found nothing
presolving (2 rounds: 2 fast, 1 medium, 1 exhaustive):
 10051 deleted vars, 3272 deleted constraints, 0 added constraints, 0 tightened bounds, 0 added holes, 1 changed sides, 11698 changed coefficients
 0 implications, 8739 cliques
presolved problem has 8774 variables (8774 bin, 0 int, 0 impl, 0 cont) and 9029 constraints
     33 constraints of type <knapsack>
   8739 constraints of type <setppc>
      1 constraints of type <linear>
    256 constraints of type <logicor>
Presolving Time: 1.05
transformed 4/5 original solutions to the transformed problem space

 time | node  | left  |LP iter|LP it/n|mem/heur|mdpt |vars |cons |rows |cuts |sepa|confs|strbr|  dualbound   | primalbound  |  gap   | compl. 
 46.2s|     1 |     0 | 54605 |     - |   223M |   0 |8774 |9029 |9023 |   0 |  0 |  27 |   0 | 1.599700e+05 | 1.601736e+05 |   0.13%| unknown
 46.5s|     1 |     0 | 54605 |     - |   224M |   0 |8774 |9029 |7147 |   0 |  0 |  27 |   0 | 1.599700e+05 | 1.601736e+05 |   0.13%| unknown
 48.0s|     1 |     0 | 57361 |     - |   224M |   0 |8774 |7153 |7117 |   2 |  1 |  27 |   0 | 1.600515e+05 | 1.601736e+05 |   0.08%| unknown
 48.1s|     1 |     0 | 57361 |     - |   225M |   0 |8774 |7153 |5602 |   2 |  1 |  27 |   0 | 1.600515e+05 | 1.601736e+05 |   0.08%| unknown
 48.4s|     1 |     0 | 57443 |     - |   225M |   0 |8774 |5612 |5602 |   3 |  2 |  27 |   0 | 1.600724e+05 | 1.601736e+05 |   0.06%| unknown
 48.4s|     1 |     0 | 57443 |     - |   225M |   0 |8774 |5612 |5450 |   3 |  2 |  27 |   0 | 1.600724e+05 | 1.601736e+05 |   0.06%| unknown
 48.7s|     1 |     0 | 57472 |     - |   226M |   0 |8774 |5460 |5451 |   4 |  3 |  27 |   0 | 1.600744e+05 | 1.601736e+05 |   0.06%| unknown
 48.7s|     1 |     0 | 57472 |     - |   226M |   0 |8774 |5460 |5435 |   4 |  3 |  27 |   0 | 1.600744e+05 | 1.601736e+05 |   0.06%| unknown
 49.0s|     1 |     0 | 57476 |     - |   226M |   0 |8774 |5444 |5436 |   5 |  4 |  27 |   0 | 1.600750e+05 | 1.601736e+05 |   0.06%| unknown
 49.0s|     1 |     0 | 57476 |     - |   226M |   0 |8774 |5444 |5433 |   5 |  4 |  27 |   0 | 1.600750e+05 | 1.601736e+05 |   0.06%| unknown
 49.3s|     1 |     0 | 57478 |     - |   227M |   0 |8774 |5441 |5434 |   6 |  5 |  27 |   0 | 1.600753e+05 | 1.601736e+05 |   0.06%| unknown
 49.3s|     1 |     0 | 57478 |     - |   227M |   0 |8774 |5441 |5433 |   6 |  5 |  27 |   0 | 1.600753e+05 | 1.601736e+05 |   0.06%| unknown
 49.6s|     1 |     0 | 57481 |     - |   227M |   0 |8774 |5440 |5434 |   7 |  6 |  27 |   0 | 1.600761e+05 | 1.601736e+05 |   0.06%| unknown
 49.6s|     1 |     0 | 57481 |     - |   227M |   0 |8774 |5440 |5427 |   7 |  6 |  27 |   0 | 1.600761e+05 | 1.601736e+05 |   0.06%| unknown
 49.9s|     1 |     0 | 57483 |     - |   227M |   0 |8774 |5433 |5428 |   8 |  7 |  27 |   0 | 1.600761e+05 | 1.601736e+05 |   0.06%| unknown
 time | node  | left  |LP iter|LP it/n|mem/heur|mdpt |vars |cons |rows |cuts |sepa|confs|strbr|  dualbound   | primalbound  |  gap   | compl. 
 49.9s|     1 |     0 | 57483 |     - |   227M |   0 |8774 |5433 |5426 |   8 |  7 |  27 |   0 | 1.600761e+05 | 1.601736e+05 |   0.06%| unknown
L50.4s|     1 |     0 | 57497 |     - |    rens|   0 |8774 |4027 |5426 |   8 |  9 |  28 |   0 | 1.600761e+05 | 1.601526e+05 |   0.05%| unknown
(run 2, node 1) restarting after 5006 global fixings of integer variables

(restart) converted 2 cuts from the global cut pool into linear constraints

presolving:
(round 1, fast)       5006 del vars, 2 del conss, 0 add conss, 0 chg bounds, 1 chg sides, 5914 chg coeffs, 0 upgd conss, 0 impls, 4067 clqs
   (50.5s) running MILP presolver
   (50.5s) MILP presolver found nothing
(round 2, medium)     5006 del vars, 862 del conss, 860 add conss, 0 chg bounds, 1 chg sides, 5914 chg coeffs, 0 upgd conss, 0 impls, 4072 clqs
presolving (3 rounds: 3 fast, 2 medium, 1 exhaustive):
 5006 deleted vars, 862 deleted constraints, 860 added constraints, 0 tightened bounds, 0 added holes, 1 changed sides, 5914 changed coefficients
 0 implications, 4072 cliques
presolved problem has 3768 variables (3768 bin, 0 int, 0 impl, 0 cont) and 4027 constraints
     18 constraints of type <knapsack>
   3752 constraints of type <setppc>
      3 constraints of type <linear>
    254 constraints of type <logicor>
Presolving Time: 1.21
transformed 5/7 original solutions to the transformed problem space

 time | node  | left  |LP iter|LP it/n|mem/heur|mdpt |vars |cons |rows |cuts |sepa|confs|strbr|  dualbound   | primalbound  |  gap   | compl. 
 52.1s|     1 |     0 | 66107 |     - |   229M |   0 |3768 |4027 |4022 |   0 |  0 |  28 |   0 | 1.600761e+05 | 1.601526e+05 |   0.05%| unknown
 52.2s|     1 |     0 | 66107 |     - |   229M |   0 |3768 |4027 |3858 |   0 |  0 |  28 |   0 | 1.600761e+05 | 1.601526e+05 |   0.05%| unknown
 52.4s|     1 |     0 | 66715 |     - |   230M |   0 |3768 |3863 |3861 |   4 |  1 |  28 |   0 | 1.600761e+05 | 1.601526e+05 |   0.05%| unknown
 52.4s|     1 |     0 | 66715 |     - |   230M |   0 |3768 |3863 |3401 |   4 |  1 |  28 |   0 | 1.600761e+05 | 1.601526e+05 |   0.05%| unknown
 52.6s|     1 |     0 | 66718 |     - |   230M |   0 |3768 |3402 |3402 |   5 |  2 |  28 |   0 | 1.600761e+05 | 1.601526e+05 |   0.05%| unknown
 52.6s|     1 |     0 | 66718 |     - |   230M |   0 |3768 |3402 |3401 |   5 |  2 |  28 |   0 | 1.600761e+05 | 1.601526e+05 |   0.05%| unknown
 52.7s|     1 |     0 | 66721 |     - |   230M |   0 |3768 |3401 |3402 |   6 |  3 |  28 |   0 | 1.600761e+05 | 1.601526e+05 |   0.05%| unknown
(run 3, node 1) restarting after 895 global fixings of integer variables

(restart) converted 2 cuts from the global cut pool into linear constraints

presolving:
(round 1, fast)       895 del vars, 1 del conss, 0 add conss, 0 chg bounds, 0 chg sides, 1087 chg coeffs, 0 upgd conss, 0 impls, 2880 clqs
   (53.2s) running MILP presolver
   (53.2s) MILP presolver found nothing
(round 2, medium)     895 del vars, 187 del conss, 187 add conss, 0 chg bounds, 1 chg sides, 1089 chg coeffs, 0 upgd conss, 0 impls, 2882 clqs
presolving (3 rounds: 3 fast, 2 medium, 1 exhaustive):
 895 deleted vars, 187 deleted constraints, 187 added constraints, 0 tightened bounds, 0 added holes, 1 changed sides, 1089 changed coefficients
 0 implications, 2882 cliques
presolved problem has 2873 variables (2873 bin, 0 int, 0 impl, 0 cont) and 3136 constraints
     18 constraints of type <knapsack>
   2858 constraints of type <setppc>
      4 constraints of type <linear>
    256 constraints of type <logicor>
Presolving Time: 1.32
transformed 6/8 original solutions to the transformed problem space

 time | node  | left  |LP iter|LP it/n|mem/heur|mdpt |vars |cons |rows |cuts |sepa|confs|strbr|  dualbound   | primalbound  |  gap   | compl. 
 54.1s|     1 |     0 | 73153 |     - |   232M |   0 |2873 |3136 |3129 |   0 |  0 |  30 |   0 | 1.600761e+05 | 1.601526e+05 |   0.05%| unknown
 54.1s|     1 |     0 | 73153 |     - |   232M |   0 |2873 |3136 |3129 |   0 |  0 |  30 |   0 | 1.600761e+05 | 1.601526e+05 |   0.05%| unknown
 54.4s|     1 |     0 | 73876 |     - |   233M |   0 |2873 |3136 |3132 |   3 |  1 |  30 |   0 | 1.600761e+05 | 1.601526e+05 |   0.05%| unknown
 54.4s|     1 |     0 | 73876 |     - |   233M |   0 |2873 |3136 |2998 |   3 |  1 |  30 |   0 | 1.600761e+05 | 1.601526e+05 |   0.05%| unknown
 54.6s|     1 |     0 | 73888 |     - |   233M |   0 |2873 |3002 |3000 |   5 |  2 |  30 |   0 | 1.600768e+05 | 1.601526e+05 |   0.05%| unknown
 54.6s|     1 |     0 | 73888 |     - |   233M |   0 |2873 |3002 |2996 |   5 |  2 |  30 |   0 | 1.600768e+05 | 1.601526e+05 |   0.05%| unknown
 54.8s|     1 |     0 | 74096 |     - |   233M |   0 |2873 |2998 |2997 |   6 |  3 |  30 |   0 | 1.600837e+05 | 1.601526e+05 |   0.04%| unknown
 54.8s|     1 |     0 | 74096 |     - |   233M |   0 |2873 |2998 |2927 |   6 |  3 |  30 |   0 | 1.600837e+05 | 1.601526e+05 |   0.04%| unknown
 54.9s|     1 |     0 | 74127 |     - |   234M |   0 |2873 |2928 |2929 |   8 |  4 |  30 |   0 | 1.600839e+05 | 1.601526e+05 |   0.04%| unknown
 55.0s|     1 |     0 | 74127 |     - |   234M |   0 |2873 |2928 |2926 |   8 |  4 |  30 |   0 | 1.600839e+05 | 1.601526e+05 |   0.04%| unknown
 55.3s|     1 |     0 | 74255 |     - |   234M |   0 |2873 |2925 |2927 |   9 |  5 |  30 |   0 | 1.601160e+05 | 1.601526e+05 |   0.02%| unknown
 55.3s|     1 |     0 | 74255 |     - |   234M |   0 |2873 |2925 |2738 |   9 |  5 |  30 |   0 | 1.601160e+05 | 1.601526e+05 |   0.02%| unknown
 55.5s|     1 |     0 | 74264 |     - |   234M |   0 |2873 |2736 |2739 |  10 |  6 |  30 |   0 | 1.601174e+05 | 1.601526e+05 |   0.02%| unknown
 55.5s|     1 |     0 | 74264 |     - |   234M |   0 |2873 |2736 |2728 |  10 |  6 |  30 |   0 | 1.601174e+05 | 1.601526e+05 |   0.02%| unknown
 55.6s|     1 |     0 | 74267 |     - |   235M |   0 |2873 |2725 |2729 |  11 |  7 |  30 |   0 | 1.601175e+05 | 1.601526e+05 |   0.02%| unknown
 time | node  | left  |LP iter|LP it/n|mem/heur|mdpt |vars |cons |rows |cuts |sepa|confs|strbr|  dualbound   | primalbound  |  gap   | compl. 
 55.8s|     1 |     0 | 74290 |     - |   235M |   0 |2873 |2725 |2731 |  13 |  8 |  30 |   0 | 1.601187e+05 | 1.601526e+05 |   0.02%| unknown
 55.8s|     1 |     0 | 74290 |     - |   235M |   0 |2873 |2725 |2723 |  13 |  8 |  30 |   0 | 1.601187e+05 | 1.601526e+05 |   0.02%| unknown
 55.9s|     1 |     0 | 74367 |     - |   235M |   0 |2873 |2717 |2724 |  14 |  9 |  30 |   0 | 1.601247e+05 | 1.601526e+05 |   0.02%| unknown
 55.9s|     1 |     0 | 74367 |     - |   235M |   0 |2873 |2717 |2636 |  14 |  9 |  30 |   0 | 1.601247e+05 | 1.601526e+05 |   0.02%| unknown
 55.9s|     1 |     0 | 74379 |     - |   237M |   0 |2873 |2629 |2633 |  16 | 10 |  30 |   0 | 1.601255e+05 | 1.601526e+05 |   0.02%| unknown
 55.9s|     1 |     0 | 74379 |     - |   237M |   0 |2873 |2629 |2625 |  16 | 10 |  30 |   0 | 1.601255e+05 | 1.601526e+05 |   0.02%| unknown
 56.0s|     1 |     0 | 74416 |     - |   237M |   0 |2873 |2621 |2627 |  18 | 11 |  30 |   0 | 1.601258e+05 | 1.601526e+05 |   0.02%| unknown
 56.0s|     1 |     0 | 74416 |     - |   237M |   0 |2873 |2621 |2615 |  18 | 11 |  30 |   0 | 1.601258e+05 | 1.601526e+05 |   0.02%| unknown
 56.0s|     1 |     0 | 74484 |     - |   237M |   0 |2873 |2609 |2617 |  20 | 12 |  30 |   0 | 1.601275e+05 | 1.601526e+05 |   0.02%| unknown
 56.0s|     1 |     0 | 74484 |     - |   239M |   0 |2873 |2609 |2592 |  20 | 12 |  30 |   0 | 1.601275e+05 | 1.601526e+05 |   0.02%| unknown
 56.0s|     1 |     0 | 74545 |     - |   240M |   0 |2873 |2584 |2594 |  22 | 13 |  30 |   0 | 1.601287e+05 | 1.601526e+05 |   0.01%| unknown
 56.0s|     1 |     0 | 74545 |     - |   240M |   0 |2873 |2584 |2570 |  22 | 13 |  30 |   0 | 1.601287e+05 | 1.601526e+05 |   0.01%| unknown
 56.1s|     1 |     0 | 74548 |     - |   240M |   0 |2873 |2560 |2572 |  24 | 14 |  30 |   0 | 1.601287e+05 | 1.601526e+05 |   0.01%| unknown
 56.1s|     1 |     0 | 74548 |     - |   240M |   0 |2873 |2560 |2570 |  24 | 14 |  30 |   0 | 1.601287e+05 | 1.601526e+05 |   0.01%| unknown
 56.1s|     1 |     0 | 74568 |     - |   240M |   0 |2873 |2558 |2572 |  26 | 15 |  30 |   0 | 1.601289e+05 | 1.601526e+05 |   0.01%| unknown
 time | node  | left  |LP iter|LP it/n|mem/heur|mdpt |vars |cons |rows |cuts |sepa|confs|strbr|  dualbound   | primalbound  |  gap   | compl. 
 56.1s|     1 |     0 | 74568 |     - |   240M |   0 |2873 |2558 |2565 |  26 | 15 |  30 |   0 | 1.601289e+05 | 1.601526e+05 |   0.01%| unknown
 56.2s|     1 |     0 | 74616 |     - |   240M |   0 |2873 |2551 |2561 |  28 | 16 |  30 |   0 | 1.601294e+05 | 1.601526e+05 |   0.01%| unknown
 56.2s|     1 |     0 | 74616 |     - |   240M |   0 |2873 |2551 |2550 |  28 | 16 |  30 |   0 | 1.601294e+05 | 1.601526e+05 |   0.01%| unknown
 56.2s|     1 |     0 | 74632 |     - |   240M |   0 |2873 |2540 |2524 |  30 | 17 |  30 |   0 | 1.601299e+05 | 1.601526e+05 |   0.01%| unknown
 56.3s|     1 |     0 | 74632 |     - |   240M |   0 |2873 |2540 |2523 |  30 | 17 |  30 |   0 | 1.601299e+05 | 1.601526e+05 |   0.01%| unknown
 56.3s|     1 |     0 | 74637 |     - |   241M |   0 |2873 |2511 |2525 |  32 | 18 |  30 |   0 | 1.601301e+05 | 1.601526e+05 |   0.01%| unknown
 56.3s|     1 |     0 | 74637 |     - |   241M |   0 |2873 |2511 |2522 |  32 | 18 |  30 |   0 | 1.601301e+05 | 1.601526e+05 |   0.01%| unknown
 56.4s|     1 |     0 | 74699 |     - |   241M |   0 |2873 |2508 |2524 |  34 | 19 |  30 |   0 | 1.601366e+05 | 1.601526e+05 |   0.01%| unknown
 56.4s|     1 |     0 | 74699 |     - |   241M |   0 |2873 |2508 |2471 |  34 | 19 |  30 |   0 | 1.601366e+05 | 1.601526e+05 |   0.01%| unknown
 56.5s|     1 |     0 | 74724 |     - |   242M |   0 |2873 |2455 |2473 |  36 | 20 |  30 |   0 | 1.601384e+05 | 1.601526e+05 |   0.01%| unknown
 56.5s|     1 |     0 | 74724 |     - |   242M |   0 |2873 |2455 |2452 |  36 | 20 |  30 |   0 | 1.601384e+05 | 1.601526e+05 |   0.01%| unknown
 56.6s|     1 |     0 | 74732 |     - |   242M |   0 |2873 |2434 |2454 |  38 | 21 |  30 |   0 | 1.601394e+05 | 1.601526e+05 |   0.01%| unknown
 56.6s|     1 |     0 | 74732 |     - |   242M |   0 |2873 |2434 |2448 |  38 | 21 |  30 |   0 | 1.601394e+05 | 1.601526e+05 |   0.01%| unknown
 56.6s|     1 |     0 | 74749 |     - |   242M |   0 |2873 |2428 |2442 |  39 | 22 |  30 |   0 | 1.601404e+05 | 1.601526e+05 |   0.01%| unknown
 56.6s|     1 |     0 | 74749 |     - |   242M |   0 |2873 |2428 |2436 |  39 | 22 |  30 |   0 | 1.601404e+05 | 1.601526e+05 |   0.01%| unknown
(run 4, node 1) restarting after 729 global fixings of integer variables

(restart) converted 17 cuts from the global cut pool into linear constraints

presolving:
(round 1, fast)       851 del vars, 124 del conss, 0 add conss, 0 chg bounds, 1 chg sides, 1541 chg coeffs, 0 upgd conss, 0 impls, 2092 clqs
   (57.0s) running MILP presolver
   (57.0s) MILP presolver found nothing
(round 2, medium)     851 del vars, 796 del conss, 671 add conss, 0 chg bounds, 2 chg sides, 1543 chg coeffs, 0 upgd conss, 0 impls, 2095 clqs
(round 3, exhaustive) 851 del vars, 796 del conss, 671 add conss, 0 chg bounds, 2 chg sides, 1545 chg coeffs, 16 upgd conss, 0 impls, 2095 clqs
presolving (4 rounds: 4 fast, 3 medium, 2 exhaustive):
 851 deleted vars, 796 deleted constraints, 671 added constraints, 0 tightened bounds, 0 added holes, 3 changed sides, 1560 changed coefficients
 0 implications, 2095 cliques
presolved problem has 2022 variables (2022 bin, 0 int, 0 impl, 0 cont) and 2301 constraints
     28 constraints of type <knapsack>
   2009 constraints of type <setppc>
      7 constraints of type <linear>
    257 constraints of type <logicor>
Presolving Time: 1.46
transformed 9/14 original solutions to the transformed problem space

 time | node  | left  |LP iter|LP it/n|mem/heur|mdpt |vars |cons |rows |cuts |sepa|confs|strbr|  dualbound   | primalbound  |  gap   | compl. 
 57.4s|     1 |     0 | 78181 |     - |   243M |   0 |2022 |2301 |2291 |   0 |  0 |  34 |   0 | 1.601404e+05 | 1.601526e+05 |   0.01%| unknown
 57.5s|     1 |     0 | 78181 |     - |   243M |   0 |2022 |2301 |2255 |   0 |  0 |  34 |   0 | 1.601404e+05 | 1.601526e+05 |   0.01%| unknown
 57.7s|     1 |     0 | 78398 |     - |   243M |   0 |2022 |2265 |2257 |   2 |  1 |  34 |   0 | 1.601405e+05 | 1.601526e+05 |   0.01%| unknown
 57.7s|     1 |     0 | 78398 |     - |   243M |   0 |2022 |2265 |2137 |   2 |  1 |  34 |   0 | 1.601405e+05 | 1.601526e+05 |   0.01%| unknown
 57.7s|     1 |     0 | 78419 |     - |   244M |   0 |2022 |2145 |2080 |   5 |  2 |  34 |   0 | 1.601413e+05 | 1.601526e+05 |   0.01%| unknown
 57.7s|     1 |     0 | 78419 |     - |   244M |   0 |2022 |2145 |2072 |   5 |  2 |  34 |   0 | 1.601413e+05 | 1.601526e+05 |   0.01%| unknown
 57.8s|     1 |     0 | 78429 |     - |   245M |   0 |2022 |2078 |2075 |   8 |  3 |  34 |   0 | 1.601427e+05 | 1.601526e+05 |   0.01%| unknown
 57.8s|     1 |     0 | 78429 |     - |   245M |   0 |2022 |2078 |2072 |   8 |  3 |  34 |   0 | 1.601427e+05 | 1.601526e+05 |   0.01%| unknown
 57.9s|     1 |     0 | 78443 |     - |   245M |   0 |2022 |2075 |2074 |  10 |  4 |  34 |   0 | 1.601450e+05 | 1.601526e+05 |   0.00%| unknown
 57.9s|     1 |     0 | 78443 |     - |   245M |   0 |2022 |2075 |2063 |  10 |  4 |  34 |   0 | 1.601450e+05 | 1.601526e+05 |   0.00%| unknown
 57.9s|     1 |     0 | 78477 |     - |   246M |   0 |2022 |2064 |2066 |  13 |  5 |  34 |   0 | 1.601459e+05 | 1.601526e+05 |   0.00%| unknown
 57.9s|     1 |     0 | 78477 |     - |   246M |   0 |2022 |2064 |2062 |  13 |  5 |  34 |   0 | 1.601459e+05 | 1.601526e+05 |   0.00%| unknown
 58.0s|     1 |     0 | 78491 |     - |   247M |   0 |2022 |2060 |2065 |  16 |  6 |  34 |   0 | 1.601463e+05 | 1.601526e+05 |   0.00%| unknown
 58.0s|     1 |     0 | 78491 |     - |   247M |   0 |2022 |2060 |2062 |  16 |  6 |  34 |   0 | 1.601463e+05 | 1.601526e+05 |   0.00%| unknown
 58.0s|     1 |     0 | 78533 |     - |   248M |   0 |2022 |2057 |2021 |  18 |  7 |  34 |   0 | 1.601486e+05 | 1.601526e+05 |   0.00%| unknown
 time | node  | left  |LP iter|LP it/n|mem/heur|mdpt |vars |cons |rows |cuts |sepa|confs|strbr|  dualbound   | primalbound  |  gap   | compl. 
 58.1s|     1 |     0 | 78533 |     - |   248M |   0 |2022 |2057 |1997 |  18 |  7 |  34 |   0 | 1.601486e+05 | 1.601526e+05 |   0.00%| unknown
 58.1s|     1 |     0 | 78580 |     - |   248M |   0 |2022 |1992 |1999 |  20 |  8 |  34 |   0 | 1.601524e+05 | 1.601526e+05 |   0.00%| unknown
 58.1s|     1 |     0 | 78580 |     - |   248M |   0 |2022 |1992 |1973 |  20 |  8 |  34 |   0 | 1.601524e+05 | 1.601526e+05 |   0.00%| unknown
 58.2s|     1 |     0 | 78604 |     - |   249M |   0 |2022 |1966 |1949 |  21 |  9 |  34 |   0 | 1.601525e+05 | 1.601526e+05 |   0.00%| unknown
 58.2s|     1 |     0 | 78604 |     - |   250M |   0 |2022 |1966 |1936 |  21 |  9 |  34 |   0 | 1.601525e+05 | 1.601526e+05 |   0.00%| unknown
(run 5, node 1) restarting after 445 global fixings of integer variables

(restart) converted 9 cuts from the global cut pool into linear constraints

presolving:
(round 1, fast)       580 del vars, 149 del conss, 1 add conss, 0 chg bounds, 4 chg sides, 819 chg coeffs, 0 upgd conss, 0 impls, 1181 clqs
(round 2, fast)       614 del vars, 181 del conss, 2 add conss, 0 chg bounds, 27 chg sides, 1225 chg coeffs, 0 upgd conss, 0 impls, 1150 clqs
   (58.3s) running MILP presolver
   (58.3s) MILP presolver (3 rounds): 0 aggregations, 8 fixings, 0 bound changes
(round 3, medium)     622 del vars, 279 del conss, 95 add conss, 0 chg bounds, 28 chg sides, 1231 chg coeffs, 0 upgd conss, 0 impls, 1146 clqs
(round 4, exhaustive) 622 del vars, 281 del conss, 95 add conss, 0 chg bounds, 28 chg sides, 1235 chg coeffs, 0 upgd conss, 0 impls, 1146 clqs
(round 5, exhaustive) 622 del vars, 281 del conss, 95 add conss, 0 chg bounds, 29 chg sides, 1238 chg coeffs, 7 upgd conss, 0 impls, 1146 clqs
(round 6, fast)       622 del vars, 281 del conss, 95 add conss, 0 chg bounds, 29 chg sides, 1314 chg coeffs, 7 upgd conss, 0 impls, 1146 clqs
(round 7, exhaustive) 622 del vars, 284 del conss, 95 add conss, 0 chg bounds, 29 chg sides, 1315 chg coeffs, 7 upgd conss, 0 impls, 1146 clqs
(round 8, exhaustive) 837 del vars, 284 del conss, 95 add conss, 0 chg bounds, 29 chg sides, 1316 chg coeffs, 7 upgd conss, 0 impls, 944 clqs
(round 9, fast)       880 del vars, 522 del conss, 95 add conss, 0 chg bounds, 31 chg sides, 1590 chg coeffs, 7 upgd conss, 0 impls, 948 clqs
   (58.4s) running MILP presolver
   (58.4s) MILP presolver found nothing
(round 10, exhaustive) 882 del vars, 522 del conss, 95 add conss, 0 chg bounds, 31 chg sides, 1591 chg coeffs, 7 upgd conss, 0 impls, 946 clqs
(round 11, fast)       882 del vars, 524 del conss, 95 add conss, 0 chg bounds, 31 chg sides, 1594 chg coeffs, 7 upgd conss, 0 impls, 946 clqs
(round 12, exhaustive) 883 del vars, 524 del conss, 95 add conss, 0 chg bounds, 31 chg sides, 1595 chg coeffs, 7 upgd conss, 0 impls, 945 clqs
(round 13, fast)       883 del vars, 525 del conss, 95 add conss, 0 chg bounds, 31 chg sides, 1596 chg coeffs, 7 upgd conss, 0 impls, 946 clqs
presolving (14 rounds: 14 fast, 8 medium, 7 exhaustive):
 883 deleted vars, 525 deleted constraints, 95 added constraints, 0 tightened bounds, 0 added holes, 31 changed sides, 1597 changed coefficients
 0 implications, 946 cliques
presolved problem has 1139 variables (1139 bin, 0 int, 0 impl, 0 cont) and 1142 constraints
     29 constraints of type <knapsack>
    907 constraints of type <setppc>
      9 constraints of type <linear>
    197 constraints of type <logicor>
Presolving Time: 1.62
transformed 3/19 original solutions to the transformed problem space

 time | node  | left  |LP iter|LP it/n|mem/heur|mdpt |vars |cons |rows |cuts |sepa|confs|strbr|  dualbound   | primalbound  |  gap   | compl. 
 58.4s|     1 |     0 | 79479 |     - |   252M |   0 |1139 |1142 |1138 |   0 |  0 |  36 |   0 | 1.601525e+05 | 1.601526e+05 |   0.00%| unknown
 58.5s|     1 |     0 | 79479 |     - |   252M |   0 |1139 |1142 | 821 |   0 |  0 |  36 |   0 | 1.601525e+05 | 1.601526e+05 |   0.00%| unknown
 58.5s|     1 |     0 | 79487 |     - |   252M |   0 |1139 | 800 | 814 |   1 |  1 |  36 |   0 | 1.601525e+05 | 1.601526e+05 |   0.00%| unknown
 58.5s|     1 |     0 | 79494 |     - |   253M |   0 |1139 | 649 | 818 |   5 |  2 |  36 |   0 | 1.601525e+05 | 1.601526e+05 |   0.00%| unknown
 58.5s|     1 |     0 | 79502 |     - |   253M |   0 |1139 | 649 | 819 |   6 |  4 |  36 |   0 | 1.601526e+05 | 1.601526e+05 |   0.00%| unknown
 58.5s|     1 |     0 | 79502 |     - |   253M |   0 |1139 | 649 | 819 |   6 |  4 |  36 |   0 | 1.601526e+05 | 1.601526e+05 |   0.00%| unknown

SCIP Status        : problem is solved [optimal solution found]
Solving Time (sec) : 58.53
Solving Nodes      : 1 (total of 6 nodes in 6 runs)
Primal Bound       : +1.60152559015596e+05 (20 solutions)
Dual Bound         : +1.60152559015596e+05
Gap                : 0.00 %
Solve Status: optimal
Solve Time: 58.54 seconds
